17	4	3
14	14	15	16	30	35	41	
0	0	0	0	0	9	1	1	2	3	5	3	2	3	4
10	0	6	0	10	1	2	6	7	6	2	1	7
4	1	8	7	3	9	10	9	7	2	8	3	6	13	14
5	1	4	10	6	1	4	1	7	10	8	3	5	8	9
6	4	5	7	3	4	1	7	3	10	4	1	17
50	5	4	0	0	4	9	5	4	10	7	2	15	17
225	10	7	10	1	9	1	8	4	7	3	3	10	11	12
125	6	0	5	7	6	6	3	4	2	5	2	16	17
200	4	0	3	3	2	3	9	3	10	8	1	17
100	1	7	9	6	1	3	8	8	6	8	1	15
50	4	5	0	5	1	9	6	5	3	5	1	17
25	0	0	9	0	2	1	5	9	5	1	1	17
4	0	4	5	8	2	1	7	5	5	8	1	17
7	5	10	10	10	10	7	10	8	9	9	1	17
4	0	0	8	8	6	10	2	4	7	7	1	17
5	3	0	0	1	1	8	5	6	3	7	1	17
0	0	0	0	0	10	4	8	4	3	2	0
